30 10
1 8 1 1 3 2 3 9 4 1 
9 11 5
20 21 4
13 17 3
11 13 1
2 5 3
12 15 10
20 0 5
13 15 7
1 3 5
1 4 1
14 16 7
0 4 8
6 8 1
14 16 9
12 16 10
4 6 6
13 17 2
8 11 10
8 11 2
21 0 8
9 12 10
22 0 3
7 9 5
0 4 8
23 2 7
17 19 1
13 19 2
4 8 8
21 0 3
4 10 10
